\* 1b *\
Minimize
OBJ: M_0 + M_1 + M_2 + M_3 + M_4
Subject To
_C1: - 20 C_0_0 - 20 C_1_0 - 20 C_2_0 - 20 C_3_0 - 20 C_4_0 - 20 C_5_0
 - 20 C_6_0 - 20 C_7_0 - 20 C_8_0 - 20 C_9_0 + M_0 - 100 P_0 = 0
_C10: 2 C_0_4 + 3 C_1_4 + 4 C_2_4 + C_3_4 + 2 C_4_4 + 2 C_5_4 + C_6_4
 + 2 C_7_4 + 3 C_8_4 + 4 C_9_4 - 7 P_4 <= 0
_C11: C_0_0 + C_0_1 + C_0_2 + C_0_3 + C_0_4 = 1
_C12: C_1_0 + C_1_1 + C_1_2 + C_1_3 + C_1_4 = 1
_C13: C_2_0 + C_2_1 + C_2_2 + C_2_3 + C_2_4 = 1
_C14: C_3_0 + C_3_1 + C_3_2 + C_3_3 + C_3_4 = 1
_C15: C_4_0 + C_4_1 + C_4_2 + C_4_3 + C_4_4 = 1
_C16: C_5_0 + C_5_1 + C_5_2 + C_5_3 + C_5_4 = 1
_C17: C_6_0 + C_6_1 + C_6_2 + C_6_3 + C_6_4 = 1
_C18: C_7_0 + C_7_1 + C_7_2 + C_7_3 + C_7_4 = 1
_C19: C_8_0 + C_8_1 + C_8_2 + C_8_3 + C_8_4 = 1
_C2: - 20 C_0_1 - 20 C_1_1 - 20 C_2_1 - 20 C_3_1 - 20 C_4_1 - 20 C_5_1
 - 20 C_6_1 - 20 C_7_1 - 20 C_8_1 - 20 C_9_1 + M_1 - 100 P_1 = 0
_C20: C_9_0 + C_9_1 + C_9_2 + C_9_3 + C_9_4 = 1
_C21: 2.2360679775 C_0_0 + C_0_1 + 1.41421356237 C_0_3 + 2 C_0_4 <= 3
_C22: 1.41421356237 C_1_1 + 2.2360679775 C_1_2 + 2.2360679775 C_1_3 + C_1_4
 <= 3
_C23: 2.82842712475 C_2_0 + 1.41421356237 C_2_1 + C_2_2 + C_2_3
 + 2.2360679775 C_2_4 <= 3
_C24: 2.82842712475 C_3_0 + 3.16227766017 C_3_1 + 3 C_3_2
 + 4.12310562562 C_3_3 + 3.60555127546 C_3_4 <= 3
_C25: 1.41421356237 C_4_0 + C_4_2 + C_4_3 + C_4_4 <= 3
_C26: C_5_0 + C_5_1 + 1.41421356237 C_5_2 + 2 C_5_3 + 1.41421356237 C_5_4 <= 3
_C27: 2.82842712475 C_6_0 + 1.41421356237 C_6_1 + C_6_2 + C_6_3
 + 2.2360679775 C_6_4 <= 3
_C28: 2.2360679775 C_7_0 + C_7_1 + 1.41421356237 C_7_3 + 2 C_7_4 <= 3
_C29: 1.41421356237 C_8_0 + 2.82842712475 C_8_1 + 3.60555127546 C_8_2
 + 3.60555127546 C_8_3 + 2.2360679775 C_8_4 <= 3
_C3: - 20 C_0_2 - 20 C_1_2 - 20 C_2_2 - 20 C_3_2 - 20 C_4_2 - 20 C_5_2
 - 20 C_6_2 - 20 C_7_2 - 20 C_8_2 - 20 C_9_2 + M_2 - 100 P_2 = 0
_C30: C_9_0 + 2.2360679775 C_9_1 + 3.16227766017 C_9_2 + 2.82842712475 C_9_3
 + 1.41421356237 C_9_4 <= 3
_C4: - 20 C_0_3 - 20 C_1_3 - 20 C_2_3 - 20 C_3_3 - 20 C_4_3 - 20 C_5_3
 - 20 C_6_3 - 20 C_7_3 - 20 C_8_3 - 20 C_9_3 + M_3 - 100 P_3 = 0
_C5: - 20 C_0_4 - 20 C_1_4 - 20 C_2_4 - 20 C_3_4 - 20 C_4_4 - 20 C_5_4
 - 20 C_6_4 - 20 C_7_4 - 20 C_8_4 - 20 C_9_4 + M_4 - 100 P_4 = 0
_C6: 2 C_0_0 + 3 C_1_0 + 4 C_2_0 + C_3_0 + 2 C_4_0 + 2 C_5_0 + C_6_0 + 2 C_7_0
 + 3 C_8_0 + 4 C_9_0 - 7 P_0 <= 0
_C7: 2 C_0_1 + 3 C_1_1 + 4 C_2_1 + C_3_1 + 2 C_4_1 + 2 C_5_1 + C_6_1 + 2 C_7_1
 + 3 C_8_1 + 4 C_9_1 - 7 P_1 <= 0
_C8: 2 C_0_2 + 3 C_1_2 + 4 C_2_2 + C_3_2 + 2 C_4_2 + 2 C_5_2 + C_6_2 + 2 C_7_2
 + 3 C_8_2 + 4 C_9_2 - 7 P_2 <= 0
_C9: 2 C_0_3 + 3 C_1_3 + 4 C_2_3 + C_3_3 + 2 C_4_3 + 2 C_5_3 + C_6_3 + 2 C_7_3
 + 3 C_8_3 + 4 C_9_3 - 7 P_3 <= 0
Binaries
C_0_0
C_0_1
C_0_2
C_0_3
C_0_4
C_1_0
C_1_1
C_1_2
C_1_3
C_1_4
C_2_0
C_2_1
C_2_2
C_2_3
C_2_4
C_3_0
C_3_1
C_3_2
C_3_3
C_3_4
C_4_0
C_4_1
C_4_2
C_4_3
C_4_4
C_5_0
C_5_1
C_5_2
C_5_3
C_5_4
C_6_0
C_6_1
C_6_2
C_6_3
C_6_4
C_7_0
C_7_1
C_7_2
C_7_3
C_7_4
C_8_0
C_8_1
C_8_2
C_8_3
C_8_4
C_9_0
C_9_1
C_9_2
C_9_3
C_9_4
P_0
P_1
P_2
P_3
P_4
End
